data/solutions/planning/wellformed/moderate/weighting/wellformed_moderate_instance25_gurobi.sol
Elapsed time: 0.1
Nodes explored: 590
Nodes left: 3
Relative gap: 0.0
Upper bound: 3255.0
Lower bound: 3255
C[0]=217.0
C[1]=217.0
C[2]=217.0
C[3]=217.0
y[0]=2
y[1]=2
y[2]=1
y[3]=3
y[4]=3
y[5]=0
y[6]=2
y[7]=0
y[8]=1
y[9]=3
y[10]=2
y[11]=0
y[12]=3
y[13]=1
y[14]=3
y[15]=1
y[16]=0
y[17]=2
y[18]=0
y[19]=3
